<number of tasks>
50

<cycle time>
1000

<order strength>
0.199


<task times>
1 102
2 172
3 96
4 183
5 107
6 239
7 106
8 148
9 102
10 69
11 62
12 117
13 158
14 120
15 55
16 102
17 80
18 146
19 85
20 260
21 48
22 156
23 161
24 28
25 32
26 207
27 162
28 217
29 54
30 96
31 100
32 50
33 88
34 169
35 70
36 207
37 121
38 104
39 87
40 185
41 223
42 82
43 154
44 235
45 162
46 105
47 245
48 22
49 235
50 169

<precedence relations>
1,10
2,9
2,34
3,49
4,33
5,11
5,40
6,43
6,50
7,17
8,11
9,13
10,12
11,14
11,15
11,16
11,17
11,18
11,19
11,45
12,21
13,23
14,24
15,20
15,22
15,25
19,33
19,34
19,39
19,49
20,26
21,27
22,28
23,32
24,30
25,29
25,31
25,33
25,34
26,39
27,37
28,39
29,35
30,36
31,38
32,40
33,46
34,46
35,41
36,43
37,42
38,44
39,43
40,45
41,46
42,46
44,48
44,50
45,47
45,48
45,49

<end>
